p tdp 79 78
69 12
42 77
43 35
3 9
2 77
72 14
71 19
38 9
64 57
22 1
67 70
6 28
22 29
45 5
19 64
25 26
31 71
14 55
65 18
16 21
78 70
33 63
59 47
1 8
5 69
41 11
48 40
34 76
50 49
79 60
51 76
73 21
17 30
44 18
69 41
38 58
32 4
19 77
56 64
23 33
40 3
37 74
15 7
38 54
55 13
61 77
69 40
66 49
15 75
68 4
21 42
78 32
68 24
70 46
10 66
34 20
35 59
66 29
53 28
38 30
72 76
28 42
26 36
79 11
32 50
63 19
62 30
74 39
17 18
14 36
52 76
20 18
55 37
72 50
27 23
15 56
3 27
35 66
